; benchmark generated from python API
(set-info :status unknown)
(declare-fun W_S2_V0 () Bool)
(declare-fun W_S2_V3 () Bool)
(declare-fun W_S2_V2 () Bool)
(declare-fun W_S3_V1 () Bool)
(declare-fun W_S3_V0 () Bool)
(declare-fun W_S3_V3 () Bool)
(declare-fun W_S1_V1 () Bool)
(declare-fun W_S1_V3 () Bool)
(declare-fun W_S1_V2 () Bool)
(declare-fun R_B1_V1 () Bool)
(declare-fun R_B1_V0 () Bool)
(declare-fun R_B1_V3 () Bool)
(declare-fun R_B1_V2 () Bool)
(declare-fun DISJ_W_S2_W_S3 () Bool)
(declare-fun R_S2_V1 () Bool)
(declare-fun R_S2_V0 () Bool)
(declare-fun R_S2_V3 () Bool)
(declare-fun R_S2_V2 () Bool)
(declare-fun DISJ_W_S2_R_S2 () Bool)
(declare-fun R_S3_V1 () Bool)
(declare-fun R_S3_V0 () Bool)
(declare-fun R_S3_V3 () Bool)
(declare-fun R_S3_V2 () Bool)
(declare-fun DISJ_W_S2_R_S3 () Bool)
(declare-fun R_S1_V1 () Bool)
(declare-fun R_S1_V0 () Bool)
(declare-fun R_S1_V3 () Bool)
(declare-fun R_S1_V2 () Bool)
(declare-fun DISJ_W_S2_R_S1 () Bool)
(declare-fun DISJ_W_S2_R_B1 () Bool)
(declare-fun DISJ_W_S3_R_S2 () Bool)
(declare-fun DISJ_W_S3_R_S3 () Bool)
(declare-fun DISJ_W_S3_R_S1 () Bool)
(declare-fun DISJ_W_S3_R_B1 () Bool)
(declare-fun DISJ_W_S1_W_S2 () Bool)
(declare-fun DISJ_W_S1_W_S3 () Bool)
(declare-fun DISJ_W_S1_R_S2 () Bool)
(declare-fun DISJ_W_S1_R_S3 () Bool)
(declare-fun DISJ_W_S1_R_S1 () Bool)
(declare-fun DISJ_W_S1_R_B1 () Bool)
(declare-fun W_S2_V1 () Bool)
(declare-fun W_S3_V2 () Bool)
(declare-fun W_S1_V0 () Bool)
(assert
 (let (($x4673 (forall ((V2_0 Int) )(forall ((V3_0 Int) )(forall ((V0_0 Int) )(forall ((V1_0 Int) )(forall ((MW_S1_V2 Bool) )(forall ((MW_S1_V3 Bool) )(forall ((MW_S1_V0 Bool) )(forall ((MW_S1_V1 Bool) )(forall ((MW_S3_V2 Bool) )(forall ((MW_S3_V3 Bool) )(forall ((MW_S3_V0 Bool) )(forall ((MW_S3_V1 Bool) )(forall ((MW_S2_V2 Bool) )(forall ((MW_S2_V3 Bool) )(forall ((MW_S2_V0 Bool) )(forall ((MW_S2_V1 Bool) )(forall ((S3_V3_!51 Int) )(forall ((S3_V2_!50 Int) )(forall ((S1_V1_!40 Int) )(forall ((S1_V1_!48 Int) )(forall ((S3_V1_!53 Int) )(forall ((S1_V0_!39 Int) )(forall ((S1_V0_!47 Int) )(forall ((S3_V0_!52 Int) )(forall ((S1_V3_!38 Int) )(forall ((S1_V3_!46 Int) )(forall ((S2_V0_!43 Int) )(forall ((S1_V2_!37 Int) )(forall ((S1_V2_!45 Int) )(forall ((B1_!36 Bool) )(forall ((B1_!49 Bool) )(forall ((S2_V1_!44 Int) )(forall ((S2_V2_!41 Int) )(forall ((S2_V3_!42 Int) )(let (($x2565 (= (ite MW_S2_V1 S2_V1_!44 (ite MW_S1_V1 S1_V1_!40 V1_0)) (ite MW_S3_V1 S3_V1_!53 (ite MW_S1_V1 S1_V1_!48 V1_0)))))
 (let (($x2975 (= (ite MW_S2_V0 S2_V0_!43 (ite MW_S1_V0 S1_V0_!39 V0_0)) (ite MW_S3_V0 S3_V0_!52 (ite MW_S1_V0 S1_V0_!47 V0_0)))))
 (let (($x5875 (= (ite MW_S2_V3 S2_V3_!42 (ite MW_S1_V3 S1_V3_!38 V3_0)) (ite MW_S3_V3 S3_V3_!51 (ite MW_S1_V3 S1_V3_!46 V3_0)))))
 (let (($x4118 (= (ite MW_S2_V2 S2_V2_!41 (ite MW_S1_V2 S1_V2_!37 V2_0)) (ite MW_S3_V2 S3_V2_!50 (ite MW_S1_V2 S1_V2_!45 V2_0)))))
 (let (($x4543 (and (or (not R_B1_V2) (= V2_0 (ite MW_S1_V2 S1_V2_!45 V2_0))) (or (not R_B1_V3) (= V3_0 (ite MW_S1_V3 S1_V3_!46 V3_0))) (or (not R_B1_V0) (= V0_0 (ite MW_S1_V0 S1_V0_!47 V0_0))) (or (not R_B1_V1) (= V1_0 (ite MW_S1_V1 S1_V1_!48 V1_0))))))
 (let (($x725 (and (= S1_V1_!40 S1_V1_!48) (= S1_V0_!47 S1_V0_!39) (= S1_V3_!38 S1_V3_!46) (= S1_V2_!37 S1_V2_!45) (or (not $x4543) (= B1_!36 B1_!49)) (or (not MW_S1_V2) W_S1_V2) (or (not MW_S1_V3) W_S1_V3) (or (not MW_S1_V1) W_S1_V1) (or (not MW_S3_V3) W_S3_V3) (or (not MW_S3_V0) W_S3_V0) (or (not MW_S3_V1) W_S3_V1) (or (not MW_S2_V2) W_S2_V2) (or (not MW_S2_V3) W_S2_V3) (or (not MW_S2_V0) W_S2_V0))))
 (or (not $x725) (not (and B1_!36 (not B1_!49))) (and $x4118 $x5875 $x2975 $x2565)))))))))
 )
 )
 )
 )
 )
 )
 )
 )
 )
 )
 )
 )
 )
 )
 )
 )
 )
 )
 )
 )
 )
 )
 )
 )
 )
 )
 )
 )
 )
 )
 )
 )
 )
 ))
 (let (($x2532 (and W_S2_V0 W_S3_V0)))
 (let (($x6301 (and W_S2_V3 W_S3_V3)))
 (let (($x2370 (= DISJ_W_S2_W_S3 (not (or W_S2_V2 $x6301 $x2532 W_S3_V1)))))
 (let (($x4996 (and W_S2_V0 R_S2_V0)))
 (let (($x821 (and W_S2_V3 R_S2_V3)))
 (let (($x2034 (and W_S2_V2 R_S2_V2)))
 (let (($x2490 (= DISJ_W_S2_R_S2 (not (or $x2034 $x821 $x4996 R_S2_V1)))))
 (let (($x2785 (and W_S2_V0 R_S3_V0)))
 (let (($x4770 (and W_S2_V3 R_S3_V3)))
 (let (($x2530 (and W_S2_V2 R_S3_V2)))
 (let (($x5366 (= DISJ_W_S2_R_S3 (not (or $x2530 $x4770 $x2785 R_S3_V1)))))
 (let (($x3299 (and W_S2_V0 R_S1_V0)))
 (let (($x671 (and W_S2_V3 R_S1_V3)))
 (let (($x1605 (and W_S2_V2 R_S1_V2)))
 (let (($x1231 (= DISJ_W_S2_R_S1 (not (or $x1605 $x671 $x3299 R_S1_V1)))))
 (let (($x3477 (and W_S2_V0 R_B1_V0)))
 (let (($x3000 (and W_S2_V3 R_B1_V3)))
 (let (($x268 (and W_S2_V2 R_B1_V2)))
 (let (($x2773 (= DISJ_W_S2_R_B1 (not (or $x268 $x3000 $x3477 R_B1_V1)))))
 (let (($x5646 (and W_S3_V1 R_S2_V1)))
 (let (($x2950 (and W_S3_V0 R_S2_V0)))
 (let (($x3472 (and W_S3_V3 R_S2_V3)))
 (let (($x2382 (= DISJ_W_S3_R_S2 (not (or R_S2_V2 $x3472 $x2950 $x5646)))))
 (let (($x2675 (and W_S3_V1 R_S3_V1)))
 (let (($x5597 (and W_S3_V0 R_S3_V0)))
 (let (($x2921 (and W_S3_V3 R_S3_V3)))
 (let (($x269 (= DISJ_W_S3_R_S3 (not (or R_S3_V2 $x2921 $x5597 $x2675)))))
 (let (($x6032 (and W_S3_V1 R_S1_V1)))
 (let (($x4236 (and W_S3_V0 R_S1_V0)))
 (let (($x5595 (and W_S3_V3 R_S1_V3)))
 (let (($x1562 (= DISJ_W_S3_R_S1 (not (or R_S1_V2 $x5595 $x4236 $x6032)))))
 (let (($x2373 (and W_S3_V1 R_B1_V1)))
 (let (($x2230 (and W_S3_V0 R_B1_V0)))
 (let (($x2839 (and W_S3_V3 R_B1_V3)))
 (let (($x2666 (= DISJ_W_S3_R_B1 (not (or R_B1_V2 $x2839 $x2230 $x2373)))))
 (let (($x2494 (and W_S1_V3 W_S2_V3)))
 (let (($x319 (and W_S1_V2 W_S2_V2)))
 (let (($x3235 (= DISJ_W_S1_W_S2 (not (or $x319 $x2494 W_S2_V0 W_S1_V1)))))
 (let (($x5229 (and W_S1_V1 W_S3_V1)))
 (let (($x497 (and W_S1_V3 W_S3_V3)))
 (let (($x3783 (= DISJ_W_S1_W_S3 (not (or W_S1_V2 $x497 W_S3_V0 $x5229)))))
 (let (($x3955 (and W_S1_V1 R_S2_V1)))
 (let (($x4552 (and W_S1_V3 R_S2_V3)))
 (let (($x1590 (and W_S1_V2 R_S2_V2)))
 (let (($x3986 (= DISJ_W_S1_R_S2 (not (or $x1590 $x4552 R_S2_V0 $x3955)))))
 (let (($x787 (and W_S1_V1 R_S3_V1)))
 (let (($x4011 (and W_S1_V3 R_S3_V3)))
 (let (($x2029 (and W_S1_V2 R_S3_V2)))
 (let (($x1038 (= DISJ_W_S1_R_S3 (not (or $x2029 $x4011 R_S3_V0 $x787)))))
 (let (($x3702 (or (and W_S1_V2 R_S1_V2) (and W_S1_V3 R_S1_V3) R_S1_V0 (and W_S1_V1 R_S1_V1))))
 (let (($x3239 (= DISJ_W_S1_R_S1 (not $x3702))))
 (let (($x979 (and W_S1_V1 R_B1_V1)))
 (let (($x1356 (and W_S1_V3 R_B1_V3)))
 (let (($x2083 (and W_S1_V2 R_B1_V2)))
 (let (($x954 (= DISJ_W_S1_R_B1 (not (or $x2083 $x1356 R_B1_V0 $x979)))))
 (and W_S1_V0 W_S3_V2 W_S2_V1 $x954 $x3239 $x1038 $x3986 $x3783 $x3235 $x2666 $x1562 $x269 $x2382 $x2773 $x1231 $x5366 $x2490 $x2370 $x4673))))))))))))))))))))))))))))))))))))))))))))))))))))))))))
(check-sat)
